c description: Random 3-CNF over 16 variables and 48 clauses
p cnf 16 48
4 5 16 0
-6 -7 -11 0
10 -13 16 0
3 -9 14 0
1 -11 -16 0
-5 -6 -16 0
-1 -6 -15 0
-1 12 -16 0
2 -3 10 0
-3 -4 10 0
-3 -4 7 0
4 -9 -10 0
3 4 -14 0
-8 -9 -11 0
2 5 13 0
5 9 -14 0
3 -10 14 0
5 8 -16 0
3 4 16 0
-1 5 9 0
2 -4 7 0
4 10 -16 0
-6 11 -15 0
-4 5 -8 0
2 -7 -13 0
2 -12 15 0
-9 -11 12 0
-1 -2 16 0
4 7 -14 0
4 15 16 0
-2 10 -16 0
-10 -14 16 0
-5 -7 15 0
-4 -10 -16 0
-7 8 -16 0
-5 -6 -13 0
4 -7 -9 0
6 14 -16 0
3 -7 16 0
6 7 14 0
1 -9 -15 0
5 9 -10 0
-7 -12 -13 0
-3 7 14 0
-6 8 -11 0
-1 13 16 0
1 7 -11 0
-6 -9 -13 0